%%%mzn-stat: initTime=0.001856217
%%%mzn-stat: objective=520
%%%mzn-stat: nodes=599
%%%mzn-stat: restarts=0
%%%mzn-stat: peakDepth=63
%%%mzn-stat: solveTime=0.020894247
%%%mzn-stat: variables=192
%%%mzn-stat: propagators=116
%%%mzn-stat: failures=534
%%%mzn-stat: propagations=27510
%%%mzn-stat: nogoods=534
%%%mzn-stat: AverageConflictSize=3.0692883895131087
%%%mzn-stat: NumUnitNogoodsLearned=519
%%%mzn-stat: AverageLearnedNogoodLength=1.1198501872659177
%%%mzn-stat: AverageBacktrackAmount=0
%%%mzn-stat: AverageLbd=1.0393258426966292
%%%mzn-stat-end
maxleg = 520;
succ = array1d(1..20,[11, 7, 15, 5, 10, 14, 1, 17, 13, 19, 12, 4, 6, 8, 9, 2, 16, 3, 20, 18]);
% time elapsed: 5.31 s
----------
==========
% time elapsed: 5.31 s
%%%mzn-stat: initTime=0.001856217
%%%mzn-stat: objective=520
%%%mzn-stat: nodes=599
%%%mzn-stat: restarts=0
%%%mzn-stat: peakDepth=63
%%%mzn-stat: solveTime=0.020902804
%%%mzn-stat: variables=192
%%%mzn-stat: propagators=116
%%%mzn-stat: failures=534
%%%mzn-stat: propagations=27510
%%%mzn-stat: nogoods=534
%%%mzn-stat: AverageConflictSize=3.0692883895131087
%%%mzn-stat: NumUnitNogoodsLearned=519
%%%mzn-stat: AverageLearnedNogoodLength=1.1198501872659177
%%%mzn-stat: AverageBacktrackAmount=0
%%%mzn-stat: AverageLbd=1.0393258426966292
%%%mzn-stat-end
